\ENCODING=ISO-8859-1
\Problem name: 

Maximize
 obj: x1 + x2 + x3 + x4 + x5 + x6 + x7 + x8 + x9 + x10 + x11 + x12 + x13 + x14
      + x15 + x16 + x17 + x18 + x19 + x20 + x21 + x22 + x23 + x24 + x25 + x26
      + x27 + x28 + x29 + x30 + x31 + x32 + x33 + x34 + x35 + x36 + x37 + x38
      + x39 + x40 + x41 + x42 + x43 + x44 + x45 + x46 + x47 + x48 + x49 + x50
      + x51 + x52 + x53 + x54 + x55 + x56 + x57 + x58 + x59 + x60 + x61 + x62
      + x63 + x64 + x65 + x66 + x67 + x68 + x69 + x70 + x71 + x72 + x73 + x74
      + x75 + x76 + x77 + x78 + x79 + x80 + x81 + x82 + x83 + x84 + x85 + x86
      + x87 + x88 + x89 + x90 + x91 + x92 + x93 + x94 + x95 + x96 + x97 + x98
      + x99 + x100 + x101 + x102 + x103 + x104 + x105 + x106 + x107 + x108
      + x109 + x110 + x111 + x112 + x113 + x114 + x115 + x116 + x117 + x118
      + x119 + x120 + x121 + x122 + x123 + x124 + x125 + x126 + x127 + x128
      + x129 + x130 + x131 + x132 + x133 + x134 + x135 + x136 + x137 + x138
      + x139 + x140 + x141 + x142 + x143 + x144 + x145 + x146 + x147 + x148
      + x149 + x150
Subject To
 clq1:   x131 + x143 <= 1
 clq2:   x6 + x62 + x102 <= 1
 clq3:   x31 + x73 + x114 <= 1
 clq4:   x62 + x117 + x126 <= 1
 clq5:   x12 + x89 + x139 <= 1
 clq6:   x20 + x30 + x55 + x103 <= 1
 clq7:   x89 + x101 + x117 <= 1
 clq8:   x59 + x76 + x122 <= 1
 clq9:   x14 + x45 + x80 + x134 <= 1
 clq10:  x13 + x35 + x50 + x54 <= 1
 clq11:  x64 + x129 + x140 <= 1
 clq12:  x16 + x19 + x91 + x108 <= 1
 clq13:  x3 + x41 + x63 + x120 <= 1
 clq14:  x80 + x99 + x134 <= 1
 clq15:  x45 + x117 + x122 <= 1
 clq16:  x108 + x112 + x132 <= 1
 clq17:  x8 + x57 + x84 + x94 <= 1
 clq18:  x40 + x80 + x126 + x138 <= 1
 clq19:  x81 + x117 + x138 <= 1
 clq20:  x68 + x89 + x114 <= 1
 clq21:  x75 + x77 + x121 + x128 + x140 <= 1
 clq22:  x31 + x34 + x69 + x142 <= 1
 clq23:  x69 + x113 + x125 <= 1
 clq24:  x7 + x58 + x142 + x147 <= 1
 clq25:  x48 + x83 + x99 <= 1
 clq26:  x32 + x36 + x57 + x107 <= 1
 clq27:  x113 + x123 + x129 + x140 <= 1
 clq28:  x12 + x28 + x72 <= 1
 clq29:  x10 + x11 + x146 <= 1
 clq30:  x10 + x20 + x51 + x70 + x141 <= 1
 clq31:  x48 + x68 + x81 + x123 <= 1
 clq32:  x2 + x34 + x100 <= 1
 clq33:  x2 + x63 + x91 + x124 <= 1
 clq34:  x87 + x102 + x136 <= 1
 clq35:  x22 + x28 + x70 + x72 <= 1
 clq36:  x77 + x89 + x144 <= 1
 clq37:  x9 + x94 + x104 + x117 <= 1
 clq38:  x15 + x27 + x76 <= 1
 clq39:  x12 + x93 + x109 <= 1
 clq40:  x5 + x63 + x67 <= 1
 clq41:  x5 + x137 + x148 <= 1
 clq42:  x1 + x13 + x45 + x68 + x80 <= 1
 clq43:  x14 + x45 + x74 + x119 <= 1
 clq44:  x20 + x54 + x75 + x87 <= 1
 clq45:  x40 + x86 + x103 + x138 <= 1
 clq46:  x7 + x30 + x35 + x126 <= 1
 clq47:  x40 + x66 + x79 + x140 <= 1
 clq48:  x16 + x20 + x36 + x123 <= 1
 clq49:  x41 + x111 + x129 <= 1
 clq50:  x26 + x60 + x108 + x118 <= 1
 clq51:  x50 + x81 + x84 + x89 <= 1
 clq52:  x56 + x116 + x146 <= 1
 clq53:  x9 + x145 + x147 + x148 <= 1
 clq54:  x55 + x56 + x111 <= 1
 clq55:  x92 + x112 + x118 <= 1
 clq56:  x4 + x87 + x93 + x124 <= 1
 clq57:  x89 + x101 + x133 <= 1
 clq58:  x1 + x25 + x45 <= 1
 clq59:  x3 + x41 + x69 + x96 <= 1
 clq60:  x30 + x41 + x85 <= 1
 clq61:  x45 + x74 + x119 + x127 <= 1
 clq62:  x48 + x74 + x98 + x124 <= 1
 clq63:  x51 + x74 + x100 + x110 <= 1
 clq64:  x26 + x28 + x108 <= 1
 clq65:  x67 + x91 + x106 <= 1
 clq66:  x37 + x64 + x140 <= 1
 clq67:  x19 + x37 + x82 <= 1
 clq68:  x27 + x73 + x89 + x117 <= 1
 clq69:  x46 + x60 + x65 + x132 <= 1
 clq70:  x2 + x60 + x65 + x100 <= 1
 clq71:  x14 + x80 + x102 <= 1
 clq72:  x3 + x36 + x113 <= 1
 clq73:  x34 + x40 + x71 + x80 <= 1
 clq74:  x108 + x116 + x136 <= 1
 clq75:  x31 + x106 + x138 + x150 <= 1
 clq76:  x17 + x93 + x124 <= 1
 clq77:  x95 + x109 + x135 <= 1
 clq78:  x10 + x29 + x109 <= 1
 clq79:  x4 + x56 + x78 + x111 <= 1
 clq80:  x29 + x88 <= 1
 clq81:  x1 + x23 + x122 <= 1
 clq82:  x38 + x58 + x105 <= 1
 clq83:  x23 + x90 + x127 <= 1
 clq84:  x13 + x60 + x108 <= 1
 clq85:  x49 + x51 + x61 + x135 <= 1
 clq86:  x15 + x59 + x116 <= 1
 clq87:  x56 + x69 + x92 + x110 <= 1
 clq88:  x23 + x53 + x63 + x91 <= 1
 clq89:  x109 + x135 + x145 <= 1
 clq90:  x13 + x111 + x119 + x142 <= 1
 clq91:  x55 + x86 + x103 + x128 <= 1
 clq92:  x42 + x74 + x98 + x124 <= 1
 clq93:  x30 + x76 + x141 <= 1
 clq94:  x7 + x132 + x142 + x147 <= 1
 clq95:  x72 + x82 + x85 <= 1
 clq96:  x64 + x83 + x114 <= 1
 clq97:  x3 + x26 + x60 + x105 <= 1
 clq98:  x4 + x38 + x65 + x105 <= 1
 clq99:  x12 + x123 + x130 <= 1
 clq100: x6 + x27 + x113 + x140 <= 1
 clq101: x22 + x34 + x142 <= 1
 clq102: x114 + x116 + x137 <= 1
 clq103: x11 + x136 + x143 <= 1
 clq104: x89 + x101 + x124 <= 1
 clq105: x13 + x32 + x100 + x149 <= 1
 clq106: x53 + x63 + x67 + x91 <= 1
 clq107: x37 + x45 + x68 + x119 <= 1
 clq108: x13 + x33 + x150 <= 1
 clq109: x2 + x50 + x130 <= 1
 clq110: x29 + x66 + x75 <= 1
 clq111: x8 + x17 + x94 <= 1
 clq112: x53 + x80 + x99 + x102 <= 1
 clq113: x25 + x44 + x60 + x93 + x96 <= 1
 clq114: x1 + x8 + x69 + x96 <= 1
 clq115: x21 + x64 + x114 <= 1
 clq116: x68 + x107 + x112 + x143 <= 1
 clq117: x4 + x38 + x49 + x72 <= 1
 clq118: x5 + x71 + x129 <= 1
 clq119: x11 + x61 + x113 + x135 <= 1
 clq120: x1 + x59 + x86 + x122 <= 1
 clq121: x37 + x120 + x139 <= 1
 clq122: x54 + x95 + x128 <= 1
 clq123: x35 + x87 + x124 <= 1
 clq124: x62 + x65 + x66 <= 1
 clq125: x16 + x50 + x92 <= 1
 clq126: x24 + x89 + x148 <= 1
 clq127: x3 + x85 + x146 <= 1
 clq128: x48 + x111 + x126 <= 1
 clq129: x86 + x93 + x96 <= 1
 clq130: x6 + x48 + x104 + x116 <= 1
 clq131: x88 + x91 + x94 <= 1
 clq132: x21 + x51 + x63 + x110 <= 1
 clq133: x22 + x58 + x70 + x112 <= 1
 clq134: x52 + x123 + x130 <= 1
 clq135: x38 + x98 + x132 <= 1
 clq136: x44 + x92 + x112 + x121 <= 1
 clq137: x40 + x49 + x62 + x102 <= 1
 clq138: x59 + x65 + x100 + x116 <= 1
 clq139: x50 + x53 + x74 + x118 <= 1
 clq140: x16 + x22 + x60 <= 1
 clq141: x5 + x42 + x68 <= 1
 clq142: x11 + x76 + x91 + x92 <= 1
 clq143: x46 + x57 + x58 + x140 <= 1
 clq144: x18 + x96 + x106 <= 1
 clq145: x88 + x118 + x123 <= 1
 clq146: x20 + x68 + x99 <= 1
 clq147: x63 + x91 + x94 <= 1
 clq148: x128 + x144 + x148 <= 1
 clq149: x19 + x35 + x124 <= 1
 clq150: x9 + x77 + x133 + x142 + x147 <= 1
 clq151: x52 + x102 + x131 <= 1
 clq152: x11 + x47 + x150 <= 1
 clq153: x39 + x44 + x96 <= 1
 clq154: x21 + x55 + x72 <= 1
 clq155: x48 + x68 + x74 + x99 <= 1
 clq156: x18 + x20 + x58 + x70 + x93 <= 1
 clq157: x13 + x88 + x110 <= 1
 clq158: x26 + x58 + x94 <= 1
 clq159: x6 + x61 + x68 + x116 <= 1
 clq160: x69 + x75 + x108 <= 1
 clq161: x27 + x60 + x65 + x105 <= 1
 clq162: x50 + x84 + x129 + x146 <= 1
 clq163: x17 + x65 + x88 <= 1
 clq164: x36 + x49 + x92 <= 1
 clq165: x3 + x41 + x100 + x120 <= 1
 clq166: x10 + x36 + x49 + x128 <= 1
 clq167: x8 + x81 + x84 <= 1
 clq168: x3 + x69 + x83 + x113 <= 1
 clq169: x1 + x59 + x72 <= 1
 clq170: x4 + x23 + x78 + x118 <= 1
 clq171: x7 + x18 + x34 <= 1
 clq172: x50 + x111 + x129 <= 1
 clq173: x47 + x123 + x130 <= 1
 clq174: x3 + x26 + x115 + x132 <= 1
 clq175: x38 + x132 + x148 <= 1
 clq176: x27 + x39 + x140 <= 1
 clq177: x12 + x20 + x44 + x93 <= 1
 clq178: x24 + x48 + x51 + x103 <= 1
 clq179: x73 + x121 + x124 + x128 <= 1
 clq180: x3 + x68 + x116 + x120 <= 1
 clq181: x50 + x53 + x76 <= 1
 clq182: x73 + x91 + x119 <= 1
 clq183: x23 + x116 + x134 <= 1
 clq184: x64 + x83 + x142 + x147 <= 1
 clq185: x59 + x85 + x97 <= 1
 clq186: x90 + x91 + x109 <= 1
 clq187: x1 + x64 + x97 <= 1
 clq188: x4 + x10 + x36 + x120 <= 1
 clq189: x2 + x50 + x76 <= 1
 clq190: x25 + x62 + x101 + x117 <= 1
 clq191: x12 + x89 + x133 <= 1
 clq192: x6 + x47 + x72 + x104 <= 1
 clq193: x1 + x18 + x95 <= 1
 clq194: x43 + x59 + x127 <= 1
 clq195: x23 + x43 + x118 + x134 <= 1
 clq196: x67 + x108 + x116 <= 1
 clq197: x108 + x132 + x136 + x140 <= 1
 clq198: x11 + x75 + x117 <= 1
 clq199: x7 + x19 + x34 + x141 <= 1
 clq200: x92 + x111 + x119 + x142 <= 1
 clq201: x28 + x62 + x126 <= 1
 clq202: x6 + x21 + x98 + x110 <= 1
 clq203: x13 + x31 + x98 <= 1
 clq204: x23 + x29 + x132 <= 1
 clq205: x73 + x105 + x128 <= 1
 clq206: x26 + x89 + x137 <= 1
 clq207: x49 + x52 + x67 <= 1
 clq208: x16 + x83 + x113 <= 1
 clq209: x7 + x84 + x122 <= 1
 clq210: x42 + x65 + x144 <= 1
 clq211: x18 + x43 + x137 <= 1
 clq212: x40 + x80 + x139 <= 1
 clq213: x9 + x45 + x150 <= 1
 clq214: x36 + x87 + x137 + x148 <= 1
 clq215: x1 + x69 + x97 + x110 <= 1
 clq216: x61 + x83 + x142 + x147 <= 1
 clq217: x55 + x56 + x144 + x145 <= 1
 clq218: x7 + x25 + x95 + x104 <= 1
 clq219: x21 + x26 + x63 + x79 <= 1
 clq220: x55 + x84 + x131 <= 1
 clq221: x21 + x51 + x121 <= 1
 clq222: x41 + x58 + x73 + x105 <= 1
 clq223: x42 + x65 + x66 <= 1
 clq224: x10 + x66 + x99 <= 1
 clq225: x33 + x111 + x132 <= 1
 clq226: x74 + x106 + x119 + x130 <= 1
 clq227: x32 + x56 + x149 <= 1
 clq228: x25 + x46 + x96 + x121 + x127 <= 1
 clq229: x32 + x52 + x57 + x100 <= 1
 clq230: x27 + x33 + x124 <= 1
 clq231: x31 + x86 + x114 + x137 <= 1
 clq232: x30 + x31 + x85 + x114 <= 1
 clq233: x7 + x102 + x120 + x142 + x147 <= 1
 clq234: x9 + x102 + x117 + x142 <= 1
 clq235: x42 + x60 + x65 + x132 <= 1
 clq236: x25 + x33 + x48 + x104 <= 1
 clq237: x32 + x40 + x80 <= 1
 clq238: x5 + x39 + x137 <= 1
 clq239: x65 + x88 + x111 <= 1
 clq240: x24 + x48 + x104 + x116 <= 1
 clq241: x28 + x51 + x92 <= 1
 clq242: x32 + x61 + x147 + x149 <= 1
 clq243: x46 + x109 + x121 + x127 <= 1
 clq244: x11 + x41 + x42 + x58 <= 1
 clq245: x25 + x101 + x105 <= 1
 clq246: x49 + x52 + x101 + x102 <= 1
 clq247: x33 + x44 + x82 + x129 <= 1
 clq248: x40 + x76 + x79 + x128 <= 1
 clq249: x45 + x105 + x131 <= 1
 clq250: x70 + x72 + x117 + x134 <= 1
 clq251: x13 + x35 + x54 + x144 + x145 <= 1
 clq252: x30 + x78 + x82 + x136 <= 1
 clq253: x42 + x101 + x103 <= 1
 clq254: x50 + x75 + x121 + x129 <= 1
 clq255: x7 + x19 + x25 + x34 <= 1
 clq256: x8 + x46 + x74 + x113 <= 1
 clq257: x74 + x98 + x136 <= 1
 clq258: x22 + x34 + x71 + x80 <= 1
 clq259: x71 + x129 + x146 <= 1
 clq260: x40 + x62 + x79 + x130 <= 1
 clq261: x9 + x41 + x59 + x100 <= 1
 clq262: x1 + x18 + x101 <= 1
 clq263: x57 + x71 + x97 <= 1
 clq264: x5 + x44 + x82 + x129 <= 1
 clq265: x54 + x80 + x135 <= 1
 clq266: x5 + x7 + x67 <= 1
 clq267: x113 + x122 + x145 <= 1
 clq268: x10 + x120 + x146 <= 1
 clq269: x115 + x119 + x141 <= 1
 clq270: x4 + x57 + x107 + x144 <= 1
 clq271: x19 + x22 + x56 + x149 <= 1
 clq272: x32 + x38 + x57 + x58 + x72 <= 1
 clq273: x7 + x45 + x122 + x150 <= 1
 clq274: x116 + x120 + x134 <= 1
 clq275: x9 + x17 + x85 <= 1
 clq276: x102 + x120 + x136 <= 1
 clq277: x8 + x61 + x96 + x135 + x147 <= 1
 clq278: x30 + x76 + x135 <= 1
 clq279: x31 + x74 + x106 <= 1
 clq280: x27 + x74 + x118 + x124 <= 1
 clq281: x26 + x71 + x122 <= 1
 clq282: x17 + x68 + x112 <= 1
 clq283: x8 + x70 + x84 + x131 <= 1
 clq284: x12 + x44 + x121 <= 1
 clq285: x5 + x8 + x17 + x28 <= 1
 clq286: x40 + x86 + x133 <= 1
 clq287: x39 + x46 + x96 + x127 <= 1
 clq288: x64 + x147 + x148 <= 1
 clq289: x24 + x29 + x32 <= 1
 clq290: x84 + x93 + x146 <= 1
 clq291: x4 + x40 + x66 + x79 <= 1
 clq292: x53 + x60 + x64 + x81 <= 1
 clq293: x27 + x76 + x112 <= 1
 clq294: x70 + x75 + x117 + x122 <= 1
 clq295: x24 + x45 + x89 + x119 <= 1
 clq296: x44 + x126 + x134 <= 1
 clq297: x58 + x72 + x73 + x114 <= 1
 clq298: x57 + x68 + x74 <= 1
 clq299: x33 + x62 + x78 <= 1
 clq300: x47 + x73 + x131 <= 1
 clq301: x5 + x6 + x23 + x113 <= 1
 clq302: x2 + x41 + x65 + x100 <= 1
 clq303: x58 + x105 + x142 <= 1
 clq304: x38 + x57 + x109 <= 1
 clq305: x42 + x85 + x113 + x117 <= 1
 clq306: x58 + x70 + x105 + x131 <= 1
 clq307: x35 + x100 + x106 + x110 <= 1
 clq308: x52 + x135 + x144 + x147 <= 1
 clq309: x66 + x92 + x112 <= 1
 clq310: x37 + x71 <= 1
 clq311: x84 + x108 + x129 <= 1
 clq312: x34 + x52 + x100 <= 1
 clq313: x3 + x9 + x72 + x85 <= 1
 clq314: x36 + x57 + x58 + x115 <= 1
 clq315: x18 + x43 + x49 + x59 <= 1
 clq316: x6 + x44 + x45 + x121 <= 1
 clq317: x55 + x116 + x137 <= 1
 clq318: x3 + x49 + x116 <= 1
 clq319: x60 + x87 + x93 + x96 <= 1
 clq320: x4 + x56 + x121 <= 1
 clq321: x32 + x38 + x77 <= 1
 clq322: x5 + x21 + x63 + x79 <= 1
 clq323: x100 + x122 + x148 <= 1
 clq324: x29 + x32 + x132 <= 1
 clq325: x113 + x118 + x125 + x135 <= 1
 clq326: x87 + x89 + x110 <= 1
 clq327: x18 + x44 + x96 + x121 <= 1
 clq328: x23 + x53 + x77 + x91 <= 1
 clq329: x47 + x68 + x78 + x123 <= 1
 clq330: x62 + x94 + x117 <= 1
 clq331: x8 + x54 + x134 <= 1
 clq332: x63 + x80 + x126 <= 1
 clq333: x37 + x62 + x126 <= 1
 clq334: x8 + x127 + x145 + x147 <= 1
 clq335: x38 + x107 + x139 <= 1
 clq336: x29 + x53 + x80 <= 1
 clq337: x3 + x26 + x103 + x132 <= 1
 clq338: x16 + x36 + x52 + x123 <= 1
 clq339: x23 + x49 + x101 <= 1
 clq340: x57 + x59 + x84 + x97 <= 1
 clq341: x33 + x87 + x110 + x129 <= 1
 clq342: x7 + x25 + x46 + x101 + x121 <= 1
 clq343: x47 + x87 <= 1
 clq344: x24 + x48 + x124 <= 1
 clq345: x37 + x42 + x124 <= 1
 clq346: x16 + x109 + x123 <= 1
 clq347: x11 + x132 + x136 + x141 <= 1
 clq348: x56 + x78 + x82 + x136 <= 1
 clq349: x23 + x33 + x49 <= 1
 clq350: x7 + x125 + x132 + x147 <= 1
 clq351: x42 + x64 + x88 <= 1
 clq352: x8 + x76 + x127 <= 1
 clq353: x34 + x69 + x113 <= 1
 clq354: x39 + x43 + x61 + x66 + x83 <= 1
 clq355: x33 + x105 + x150 <= 1
 clq356: x6 + x22 + x68 <= 1
 clq357: x27 + x39 + x89 <= 1
 clq358: x55 + x96 + x102 + x147 <= 1
 clq359: x38 + x57 + x58 + x94 <= 1
 clq360: x13 + x62 + x85 <= 1
 clq361: x3 + x44 + x60 + x96 <= 1
 clq362: x54 + x87 + x102 <= 1
 clq363: x1 + x25 + x96 + x115 <= 1
 clq364: x2 + x51 + x61 + x76 <= 1
 clq365: x1 + x69 + x95 + x142 <= 1
 clq366: x2 + x57 + x72 + x137 <= 1
 clq367: x9 + x48 + x98 <= 1
 clq368: x40 + x49 + x92 <= 1
 clq369: x20 + x58 + x142 <= 1
 clq370: x74 + x91 + x94 + x119 <= 1
 clq371: x102 + x108 + x136 <= 1
 clq372: x23 + x37 + x133 <= 1
 clq373: x4 + x66 + x112 + x143 <= 1
 clq374: x9 + x21 + x98 <= 1
 clq375: x3 + x54 + x100 + x106 <= 1
 clq376: x39 + x116 + x136 <= 1
 clq377: x3 + x26 + x41 + x105 + x150 <= 1
 clq378: x41 + x65 + x111 <= 1
 clq379: x14 + x69 + x142 <= 1
 clq380: x54 + x80 + x134 <= 1
 clq381: x6 + x21 + x26 + x79 <= 1
 clq382: x53 + x115 + x119 <= 1
 clq383: x67 + x88 + x90 + x91 <= 1
 clq384: x34 + x42 + x113 <= 1
 clq385: x75 + x121 + x128 + x129 + x140 <= 1
 clq386: x32 + x36 + x52 + x57 + x58 <= 1
 clq387: x42 + x77 + x144 <= 1
 clq388: x23 + x113 + x122 <= 1
 clq389: x10 + x18 + x110 + x114 <= 1
 clq390: x54 + x74 + x100 + x106 <= 1
 clq391: x1 + x86 + x96 + x122 <= 1
 clq392: x50 + x147 + x149 <= 1
 clq393: x4 + x87 + x112 + x143 <= 1
 clq394: x17 + x28 + x88 <= 1
 clq395: x101 + x121 + x124 + x128 + x140 <= 1
 clq396: x3 + x83 + x106 + x132 <= 1
 clq397: x38 + x100 + x148 <= 1
 clq398: x22 + x75 + x128 <= 1
 clq399: x11 + x95 + x146 <= 1
 clq400: x20 + x68 + x97 + x123 <= 1
 clq401: x88 + x120 + x146 <= 1
 clq402: x38 + x82 + x109 <= 1
 clq403: x60 + x73 + x114 <= 1
 clq404: x41 + x120 + x134 <= 1
 clq405: x24 + x75 + x89 <= 1
 clq406: x8 + x61 + x76 + x135 <= 1
 clq407: x19 + x22 + x123 + x125 <= 1
 clq408: x68 + x79 + x93 <= 1
 clq409: x21 + x40 + x134 <= 1
 clq410: x9 + x109 + x145 <= 1
 clq411: x41 + x42 + x98 <= 1
 clq412: x82 + x101 + x133 <= 1
 clq413: x1 + x13 + x45 + x100 + x122 <= 1
 clq414: x6 + x23 + x98 + x131 <= 1
 clq415: x4 + x70 + x148 <= 1
 clq416: x14 + x30 + x103 <= 1
 clq417: x57 + x100 + x110 + x123 <= 1
 clq418: x32 + x64 + x147 <= 1
 clq419: x6 + x48 + x62 + x126 <= 1
 clq420: x68 + x112 + x119 + x143 <= 1
 clq421: x30 + x103 + x114 + x128 <= 1
 clq422: x40 + x87 + x89 <= 1
 clq423: x8 + x70 + x96 + x139 <= 1
 clq424: x16 + x17 + x95 <= 1
 clq425: x29 + x53 + x77 + x93 <= 1
 clq426: x36 + x58 + x145 <= 1
 clq427: x35 + x69 + x110 <= 1
 clq428: x36 + x74 + x91 + x106 <= 1
 clq429: x111 + x119 + x135 <= 1
 clq430: x33 + x92 + x110 <= 1
 clq431: x32 + x57 + x64 + x97 <= 1
 clq432: x36 + x42 + x58 <= 1
 clq433: x32 + x61 + x76 + x135 <= 1
 clq434: x129 + x144 + x146 <= 1
 clq435: x47 + x88 + x131 <= 1
 clq436: x6 + x110 + x126 <= 1
 clq437: x62 + x85 + x130 <= 1
 clq438: x56 + x71 + x115 <= 1
 clq439: x49 + x52 + x135 <= 1
 clq440: x40 + x71 + x115 <= 1
 clq441: x33 + x96 + x150 <= 1
 clq442: x44 + x75 + x121 + x129 <= 1
 clq443: x27 + x73 + x121 + x124 <= 1
 clq444: x88 + x102 + x110 + x120 <= 1
 clq445: x60 + x82 + x100 <= 1
 clq446: x132 + x136 + x139 <= 1
 clq447: x16 + x128 + x144 <= 1
 clq448: x10 + x41 + x106 + x110 <= 1
 clq449: x86 + x113 + x122 + x125 <= 1
 clq450: x7 + x104 + x120 + x147 <= 1
 clq451: x57 + x100 + x123 + x125 <= 1
 clq452: x34 + x46 + x109 + x127 <= 1
 clq453: x1 + x70 + x112 <= 1
 clq454: x70 + x80 + x122 + x139 <= 1
 clq455: x7 + x21 + x58 + x72 <= 1
 clq456: x45 + x68 + x93 <= 1
 clq457: x62 + x79 + x136 <= 1
 clq458: x47 + x85 + x130 <= 1
 clq459: x15 + x22 + x72 + x85 <= 1
 clq460: x33 + x97 + x110 <= 1
 clq461: x44 + x92 + x107 + x112 <= 1
 clq462: x37 + x42 + x84 <= 1
 clq463: x19 + x45 + x134 <= 1
 clq464: x20 + x30 + x75 <= 1
 clq465: x26 + x28 + x150 <= 1
 clq466: x58 + x112 + x144 <= 1
 clq467: x84 + x89 + x137 + x148 <= 1
 clq468: x1 + x80 + x135 <= 1
 clq469: x38 + x44 + x107 <= 1
 clq470: x1 + x47 + x86 <= 1
 clq471: x8 + x70 + x134 + x141 <= 1
 clq472: x39 + x46 + x94 + x96 <= 1
 clq473: x88 + x90 + x102 <= 1
 clq474: x23 + x90 + x113 + x118 <= 1
 clq475: x18 + x98 + x131 <= 1
 clq476: x47 + x72 + x134 <= 1
 clq477: x70 + x102 + x131 <= 1
 clq478: x7 + x86 + x122 + x125 <= 1
 clq479: x11 + x42 + x47 <= 1
 clq480: x27 + x67 + x93 <= 1
 clq481: x16 + x91 + x105 <= 1
 clq482: x2 + x64 + x79 <= 1
 clq483: x50 + x54 + x75 + x118 <= 1
 clq484: x5 + x7 + x104 <= 1
 clq485: x62 + x65 + x78 + x102 <= 1
 clq486: x89 + x133 + x137 <= 1
 clq487: x4 + x19 + x81 + x124 <= 1
 clq488: x59 + x80 + x98 <= 1
 clq489: x3 + x68 + x69 <= 1
 clq490: x50 + x55 + x73 + x89 <= 1
 clq491: x4 + x66 + x70 + x112 <= 1
 clq492: x14 + x65 + x102 <= 1
 clq493: x94 + x117 + x125 <= 1
 clq494: x61 + x71 + x79 + x83 <= 1
 clq495: x83 + x86 + x108 <= 1
 clq496: x31 + x78 + x98 <= 1
 clq497: x3 + x71 + x83 + x106 <= 1
 clq498: x8 + x24 + x29 + x35 <= 1
 clq499: x21 + x69 + x110 <= 1
 clq500: x4 + x12 + x107 + x144 <= 1
 clq501: x13 + x60 + x100 + x110 <= 1
 clq502: x1 + x59 + x80 + x84 + x122 <= 1
 clq503: x20 + x36 + x75 + x87 <= 1
 clq504: x17 + x55 + x103 + x112 <= 1
 clq505: x28 + x56 + x78 + x92 + x111 <= 1
 clq506: x13 + x44 + x45 <= 1
 clq507: x81 + x118 + x124 + x135 <= 1
 clq508: x33 + x108 + x129 <= 1
 clq509: x21 + x65 + x91 <= 1
 clq510: x46 + x47 + x74 + x127 <= 1
 clq511: x10 + x29 + x66 + x114 <= 1
 clq512: x117 + x122 + x136 + x141 <= 1
 clq513: x75 + x108 + x129 + x140 <= 1
 clq514: x16 + x63 + x123 <= 1
 clq515: x87 + x89 + x137 + x148 <= 1
 clq516: x109 + x116 <= 1
 clq517: x14 + x58 + x115 + x131 <= 1
 clq518: x3 + x41 + x105 + x106 + x150 <= 1
 clq519: x54 + x95 + x118 + x134 <= 1
 clq520: x20 + x39 + x44 <= 1
 clq521: x28 + x111 + x126 <= 1
 clq522: x21 + x54 + x57 <= 1
 clq523: x68 + x81 + x89 + x97 <= 1
 clq524: x49 + x62 + x101 + x102 + x117 <= 1
 clq525: x29 + x55 + x74 <= 1
 clq526: x25 + x30 + x136 <= 1
 clq527: x37 + x55 + x76 + x102 <= 1
 clq528: x19 + x70 + x91 + x141 <= 1
 clq529: x64 + x79 + x83 <= 1
 clq530: x31 + x115 + x134 <= 1
 clq531: x45 + x50 + x55 + x89 <= 1
 clq532: x21 + x102 + x136 <= 1
 clq533: x101 + x133 + x149 <= 1
 clq534: x113 + x118 + x123 + x125 <= 1
 clq535: x66 + x125 <= 1
 clq536: x37 + x45 + x92 + x119 <= 1
 clq537: x18 + x55 + x96 <= 1
 clq538: x20 + x77 + x87 + x93 <= 1
 clq539: x10 + x73 + x99 <= 1
 clq540: x27 + x43 + x74 + x118 <= 1
 clq541: x56 + x71 + x146 <= 1
 clq542: x107 + x120 + x139 <= 1
 clq543: x33 + x111 + x129 <= 1
 clq544: x11 + x57 + x58 + x72 <= 1
 clq545: x39 + x62 + x101 <= 1
 clq546: x17 + x53 + x115 <= 1
 clq547: x39 + x46 + x47 + x123 + x140 <= 1
 clq548: x20 + x25 + x61 + x114 <= 1
 clq549: x10 + x59 + x132 <= 1
 clq550: x26 + x77 + x103 <= 1
 clq551: x69 + x144 + x148 <= 1
 clq552: x15 + x22 + x142 <= 1
 clq553: x59 + x97 + x116 <= 1
 clq554: x31 + x34 + x46 + x142 <= 1
 clq555: x60 + x94 + x119 <= 1
 clq556: x52 + x56 + x134 <= 1
 clq557: x56 + x92 + x110 + x114 <= 1
 clq558: x3 + x41 + x96 + x106 + x150 <= 1
 clq559: x80 + x121 + x128 <= 1
 clq560: x16 + x122 + x150 <= 1
 clq561: x82 + x97 + x112 <= 1
 clq562: x12 + x20 + x59 + x65 <= 1
 clq563: x25 + x33 + x62 + x129 <= 1
 clq564: x81 + x145 + x148 <= 1
 clq565: x43 + x49 + x102 <= 1
 clq566: x19 + x39 + x123 + x140 <= 1
 clq567: x1 + x8 + x28 + x61 <= 1
 clq568: x65 + x111 + x119 <= 1
 clq569: x37 + x41 + x150 <= 1
 clq570: x18 + x85 + x90 <= 1
 clq571: x14 + x44 + x115 + x129 <= 1
 clq572: x88 + x89 + x110 + x141 <= 1
 clq573: x49 + x59 + x72 + x117 <= 1
 clq574: x43 + x66 + x70 + x112 <= 1
 clq575: x42 + x84 + x94 <= 1
 clq576: x43 + x74 + x100 <= 1
 clq577: x4 + x12 + x65 + x118 <= 1
 clq578: x53 + x81 + x117 <= 1
 clq579: x25 + x31 + x121 + x129 <= 1
 clq580: x75 + x121 + x131 <= 1
 clq581: x6 + x48 + x50 + x104 <= 1
 clq582: x66 + x124 + x140 <= 1
 clq583: x24 + x46 + x82 <= 1
 clq584: x21 + x32 + x77 <= 1
 clq585: x98 + x112 + x132 <= 1
 clq586: x28 + x111 + x133 <= 1
 clq587: x31 + x125 + x139 <= 1
 clq588: x4 + x60 + x65 + x105 <= 1
 clq589: x67 + x114 + x116 <= 1
 clq590: x51 + x103 + x135 <= 1
 clq591: x52 + x118 + x124 + x135 <= 1
 clq592: x85 + x106 + x130 <= 1
 clq593: x81 + x84 + x97 + x123 <= 1
 clq594: x16 + x109 + x127 + x150 <= 1
 clq595: x27 + x40 + x86 <= 1
 clq596: x38 + x94 + x133 <= 1
 clq597: x50 + x129 + x149 <= 1
 clq598: x54 + x90 + x118 <= 1
 clq599: x11 + x29 + x55 + x72 <= 1
 clq600: x4 + x11 + x31 + x114 <= 1
 clq601: x19 + x34 + x39 + x141 <= 1
 clq602: x51 + x70 + x117 + x141 <= 1
 clq603: x53 + x67 + x91 + x143 <= 1
 clq604: x10 + x62 + x66 <= 1
 clq605: x26 + x52 + x66 <= 1
 clq606: x20 + x68 + x126 <= 1
 clq607: x74 + x91 + x110 + x126 <= 1
 clq608: x15 + x96 + x121 <= 1
 clq609: x31 + x125 + x147 <= 1
 clq610: x2 + x99 + x145 <= 1
 clq611: x42 + x47 + x88 <= 1
 clq612: x62 + x126 + x145 <= 1
 clq613: x7 + x26 + x41 + x150 <= 1
 clq614: x49 + x55 + x102 <= 1
 clq615: x25 + x32 + x61 + x96 <= 1
 clq616: x53 + x77 + x128 <= 1
 clq617: x37 + x82 + x133 <= 1
 clq618: x8 + x69 + x96 + x127 <= 1
 clq619: x17 + x115 + x129 <= 1
 clq620: x68 + x112 + x126 <= 1
 clq621: x15 + x48 + x150 <= 1
 clq622: x53 + x100 + x123 <= 1
 clq623: x54 + x56 + x116 + x134 <= 1
 clq624: x36 + x49 + x52 + x123 <= 1
 clq625: x42 + x65 + x67 + x88 <= 1
 clq626: x34 + x69 + x71 + x127 <= 1
 clq627: x4 + x107 + x112 + x143 + x144 <= 1
 clq628: x31 + x32 + x39 + x85 <= 1
 clq629: x30 + x48 + x55 + x103 <= 1
 clq630: x17 + x88 + x94 <= 1
 clq631: x28 + x97 + x133 <= 1
 clq632: x40 + x71 + x80 + x98 <= 1
 clq633: x42 + x51 + x139 <= 1
 clq634: x9 + x39 + x85 <= 1
 clq635: x4 + x10 + x66 + x114 <= 1
 clq636: x62 + x117 + x122 + x136 <= 1
 clq637: x59 + x84 + x105 <= 1
 clq638: x5 + x6 + x8 + x113 <= 1
 clq639: x6 + x48 + x150 <= 1
 clq640: x24 + x51 + x121 + x140 <= 1
 clq641: x5 + x8 + x17 + x131 <= 1
 clq642: x13 + x22 + x98 + x149 <= 1
 clq643: x51 + x66 + x140 <= 1
 clq644: x21 + x53 + x63 + x91 <= 1
 clq645: x48 + x71 + x83 <= 1
 clq646: x31 + x48 + x134 <= 1
 clq647: x57 + x137 + x144 <= 1
 clq648: x53 + x58 + x68 + x93 <= 1
 clq649: x26 + x71 + x79 + x93 <= 1
 clq650: x1 + x61 + x68 <= 1
 clq651: x65 + x102 + x147 <= 1
 clq652: x35 + x69 + x90 <= 1
 clq653: x21 + x64 + x106 <= 1
 clq654: x29 + x32 + x77 + x97 <= 1
 clq655: x15 + x88 + x94 + x96 <= 1
 clq656: x24 + x35 + x105 <= 1
 clq657: x1 + x46 + x97 + x110 <= 1
 clq658: x29 + x56 + x134 <= 1
 clq659: x46 + x56 + x94 <= 1
 clq660: x11 + x42 + x117 + x138 <= 1
 clq661: x2 + x14 + x65 <= 1
 clq662: x72 + x114 + x137 <= 1
 clq663: x1 + x27 + x112 <= 1
 clq664: x5 + x42 + x85 + x113 <= 1
 clq665: x19 + x123 + x130 <= 1
 clq666: x23 + x30 + x64 <= 1
 clq667: x26 + x49 + x51 <= 1
 clq668: x54 + x102 + x145 + x147 <= 1
 clq669: x8 + x22 + x70 + x131 <= 1
 clq670: x68 + x125 + x126 <= 1
 clq671: x27 + x93 + x124 <= 1
 clq672: x41 + x46 + x65 <= 1
 clq673: x23 + x116 + x146 <= 1
 clq674: x44 + x112 + x126 <= 1
 clq675: x11 + x41 + x58 + x105 <= 1
 clq676: x6 + x48 + x126 + x131 <= 1
 clq677: x5 + x66 + x79 <= 1
 clq678: x54 + x71 + x80 + x106 <= 1
 clq679: x30 + x38 + x94 + x125 <= 1
 clq680: x26 + x43 + x137 <= 1
 clq681: x6 + x21 + x32 + x72 <= 1
 clq682: x11 + x43 + x48 <= 1
 clq683: x83 + x108 + x116 <= 1
 clq684: x41 + x53 + x77 + x111 <= 1
 clq685: x30 + x79 + x136 <= 1
 clq686: x88 + x94 + x118 <= 1
 clq687: x18 + x44 + x93 + x96 <= 1
 clq688: x10 + x19 + x70 + x141 <= 1
 clq689: x32 + x36 + x76 <= 1
 clq690: x25 + x66 + x140 <= 1
 clq691: x18 + x59 + x85 <= 1
 clq692: x3 + x29 + x72 <= 1
 clq693: x30 + x38 + x103 + x114 <= 1
 clq694: x43 + x134 + x137 <= 1
 clq695: x6 + x46 + x60 + x110 <= 1
 clq696: x72 + x117 + x125 <= 1
 clq697: x82 + x88 <= 1
 clq698: x57 + x64 + x109 <= 1
 clq699: x109 + x127 + x143 <= 1
 clq700: x1 + x100 + x110 + x120 <= 1
 clq701: x70 + x72 + x104 + x147 <= 1
 clq702: x9 + x41 + x77 + x147 <= 1
 clq703: x23 + x51 + x98 + x131 <= 1
 clq704: x9 + x104 + x133 + x147 <= 1
 clq705: x7 + x122 + x125 + x150 <= 1
 clq706: x42 + x47 + x68 + x74 <= 1
 clq707: x1 + x13 + x101 <= 1
 clq708: x64 + x79 + x104 <= 1
 clq709: x62 + x69 + x90 + x148 <= 1
 clq710: x77 + x85 + x90 <= 1
 clq711: x115 + x132 + x142 <= 1
 clq712: x9 + x59 + x75 + x117 <= 1
 clq713: x7 + x120 + x130 <= 1
 clq714: x38 + x72 + x82 + x129 <= 1
 clq715: x24 + x119 + x130 <= 1
 clq716: x17 + x88 + x115 + x131 <= 1
 clq717: x54 + x57 + x71 + x93 <= 1
 clq718: x34 + x71 + x80 + x146 <= 1
 clq719: x77 + x122 + x136 + x140 <= 1
 clq720: x15 + x27 + x143 <= 1
 clq721: x8 + x12 + x94 + x133 <= 1
 clq722: x25 + x35 + x83 + x106 <= 1
 clq723: x6 + x26 + x50 <= 1
 clq724: x36 + x133 + x145 <= 1
 clq725: x59 + x65 + x105 + x116 <= 1
 clq726: x100 + x121 + x138 <= 1
 clq727: x70 + x76 + x102 <= 1
 clq728: x89 + x117 + x126 <= 1
 clq729: x45 + x80 + x121 + x127 <= 1
 clq730: x39 + x95 + x127 <= 1
 clq731: x3 + x143 + x144 + x146 <= 1
 clq732: x77 + x89 + x97 + x133 <= 1
 clq733: x12 + x89 + x144 + x148 <= 1
 clq734: x7 + x34 + x69 + x142 <= 1
 clq735: x19 + x37 + x84 <= 1
 clq736: x1 + x69 + x72 <= 1
 clq737: x23 + x53 + x118 <= 1
 clq738: x42 + x88 + x149 <= 1
 clq739: x31 + x46 + x137 + x142 <= 1
 clq740: x38 + x63 + x110 + x129 <= 1
 clq741: x48 + x60 + x65 + x116 <= 1
 clq742: x25 + x84 + x93 <= 1
 clq743: x8 + x92 + x114 <= 1
 clq744: x58 + x68 + x78 + x93 <= 1
 clq745: x27 + x30 + x94 <= 1
 clq746: x44 + x56 + x82 <= 1
 clq747: x10 + x73 + x120 + x128 <= 1
 clq748: x4 + x19 + x56 + x81 <= 1
 clq749: x15 + x39 + x83 + x116 <= 1
 clq750: x30 + x48 + x94 <= 1
 clq751: x20 + x25 + x30 + x93 <= 1
 clq752: x52 + x95 + x118 + x134 <= 1
 clq753: x8 + x70 + x96 + x147 <= 1
 clq754: x8 + x70 + x113 + x134 <= 1
 clq755: x18 + x79 + x93 + x104 <= 1
 clq756: x22 + x27 + x107 + x112 <= 1
 clq757: x4 + x16 + x144 <= 1
 clq758: x116 + x120 + x136 + x139 <= 1
 clq759: x2 + x81 + x124 <= 1
 clq760: x23 + x37 + x64 <= 1
 clq761: x88 + x89 + x137 + x141 <= 1
 clq762: x82 + x86 + x125 <= 1
 clq763: x108 + x118 + x145 <= 1
 clq764: x59 + x81 + x84 + x97 <= 1
 clq765: x6 + x46 + x47 + x140 <= 1
 clq766: x43 + x74 + x91 <= 1
 clq767: x42 + x74 + x98 + x149 <= 1
 clq768: x25 + x120 + x136 + x139 <= 1
 clq769: x43 + x61 + x73 <= 1
 clq770: x17 + x69 + x124 <= 1
 clq771: x9 + x25 + x45 + x117 <= 1
 clq772: x19 + x35 + x54 + x119 <= 1
 clq773: x71 + x73 + x148 <= 1
 clq774: x27 + x71 + x93 + x104 <= 1
 clq775: x75 + x89 + x139 <= 1
 clq776: x86 + x113 + x123 + x125 <= 1
 clq777: x77 + x90 + x103 <= 1
 clq778: x8 + x61 + x87 + x96 <= 1
 clq779: x7 + x25 + x35 + x139 <= 1
 clq780: x10 + x106 + x118 <= 1
 clq781: x4 + x31 + x142 <= 1
 clq782: x3 + x66 + x83 + x124 <= 1
 clq783: x84 + x123 + x129 <= 1
 clq784: x45 + x52 + x100 <= 1
 clq785: x15 + x19 + x39 + x96 <= 1
 clq786: x23 + x130 + x146 <= 1
 clq787: x27 + x74 + x118 + x149 <= 1
 clq788: x30 + x33 + x78 + x82 <= 1
 clq789: x10 + x59 + x84 <= 1
 clq790: x14 + x45 + x74 + x133 <= 1
 clq791: x58 + x70 + x139 <= 1
 clq792: x14 + x23 + x30 <= 1
 clq793: x27 + x40 + x74 + x94 <= 1
 clq794: x6 + x50 + x104 + x121 <= 1
 clq795: x28 + x54 + x102 <= 1
 clq796: x56 + x110 + x127 + x145 <= 1
 clq797: x17 + x124 + x138 <= 1
 clq798: x50 + x82 + x129 <= 1
 clq799: x13 + x98 + x145 + x149 <= 1
 clq800: x31 + x87 + x137 + x143 <= 1
 clq801: x41 + x53 + x58 + x105 <= 1
 clq802: x16 + x89 + x95 + x109 <= 1
 clq803: x22 + x27 + x60 + x65 <= 1
 clq804: x38 + x65 + x100 <= 1
 clq805: x62 + x66 + x90 <= 1
 clq806: x10 + x17 + x106 <= 1
 clq807: x48 + x71 + x122 + x131 <= 1
 clq808: x19 + x22 + x39 + x123 <= 1
 clq809: x19 + x26 + x108 <= 1
 clq810: x11 + x117 + x136 + x141 <= 1
 clq811: x3 + x9 + x76 <= 1
 clq812: x17 + x85 + x95 <= 1
 clq813: x70 + x96 + x122 + x147 <= 1
 clq814: x23 + x43 + x107 <= 1
 clq815: x31 + x32 + x70 + x147 <= 1
 clq816: x16 + x36 + x113 + x123 <= 1
 clq817: x11 + x17 + x95 <= 1
 clq818: x119 + x143 + x146 <= 1
 clq819: x19 + x25 + x33 + x34 <= 1
 clq820: x9 + x59 + x76 <= 1
 clq821: x20 + x59 + x75 + x87 <= 1
 clq822: x12 + x108 + x118 <= 1
 clq823: x7 + x34 + x138 + x142 <= 1
 clq824: x6 + x62 + x139 <= 1
 clq825: x54 + x57 + x100 + x123 <= 1
 clq826: x3 + x103 + x120 <= 1
 clq827: x37 + x41 + x63 + x126 <= 1
 clq828: x14 + x65 + x66 <= 1
 clq829: x32 + x38 + x57 + x100 <= 1
 clq830: x60 + x78 + x82 <= 1
 clq831: x32 + x52 + x96 + x135 + x147 <= 1
 clq832: x31 + x34 + x78 <= 1
 clq833: x26 + x49 + x52 + x71 <= 1
 clq834: x27 + x93 + x149 <= 1
 clq835: x6 + x62 + x79 + x83 <= 1
 clq836: x5 + x17 + x103 <= 1
 clq837: x54 + x56 + x128 + x144 <= 1
 clq838: x52 + x73 + x124 <= 1
 clq839: x22 + x41 + x85 <= 1
 clq840: x42 + x100 + x143 <= 1
 clq841: x27 + x94 + x104 + x117 <= 1
 clq842: x22 + x55 + x131 <= 1
 clq843: x13 + x35 + x54 + x119 <= 1
 clq844: x40 + x62 + x74 + x126 <= 1
 clq845: x37 + x42 + x139 + x143 <= 1
 clq846: x28 + x57 + x72 <= 1
 clq847: x15 + x23 + x116 <= 1
 clq848: x65 + x91 + x147 <= 1
 clq849: x15 + x60 + x93 + x96 <= 1
 clq850: x27 + x107 + x112 + x113 <= 1
 clq851: x97 + x116 + x134 <= 1
 clq852: x53 + x91 + x119 + x143 <= 1
 clq853: x4 + x72 + x85 + x114 <= 1
 clq854: x15 + x42 + x88 + x94 <= 1
 clq855: x10 + x11 + x55 + x113 <= 1
 clq856: x99 + x102 + x145 <= 1
 clq857: x10 + x62 + x78 <= 1
 clq858: x6 + x45 + x121 + x131 <= 1
 clq859: x1 + x50 + x84 <= 1
 clq860: x48 + x126 + x134 <= 1
 clq861: x67 + x134 + x140 <= 1
 clq862: x48 + x71 + x90 <= 1
 clq863: x11 + x29 + x35 + x72 <= 1
 clq864: x84 + x90 + x148 <= 1
 clq865: x9 + x100 + x138 <= 1
 clq866: x34 + x53 + x80 <= 1
 clq867: x40 + x138 + x150 <= 1
 clq868: x57 + x84 + x107 + x123 <= 1
 clq869: x63 + x120 + x142 <= 1
 clq870: x61 + x68 + x114 + x116 <= 1
 clq871: x26 + x41 + x58 + x105 <= 1
 clq872: x22 + x85 + x90 + x149 <= 1
 clq873: x75 + x120 + x139 <= 1
 clq874: x9 + x21 + x72 + x79 <= 1
 clq875: x117 + x122 + x138 + x142 <= 1
 clq876: x32 + x36 + x39 + x57 <= 1
 clq877: x48 + x68 + x74 + x116 <= 1
 clq878: x49 + x52 + x71 + x101 <= 1
 clq879: x11 + x61 + x113 + x117 <= 1
 clq880: x24 + x134 + x143 <= 1
 clq881: x65 + x91 + x119 <= 1
 clq882: x31 + x53 + x139 + x143 <= 1
 clq883: x7 + x61 + x142 + x147 <= 1
 clq884: x88 + x91 + x110 + x141 <= 1
 clq885: x54 + x103 + x135 + x145 <= 1
 clq886: x3 + x15 + x60 + x96 + x116 <= 1
 clq887: x28 + x88 + x102 + x120 <= 1
 clq888: x4 + x36 + x57 + x74 <= 1
 clq889: x15 + x38 + x148 <= 1
 clq890: x2 + x51 + x103 <= 1
Bounds
 0 <= x1 <= 1
 0 <= x2 <= 1
 0 <= x3 <= 1
 0 <= x4 <= 1
 0 <= x5 <= 1
 0 <= x6 <= 1
 0 <= x7 <= 1
 0 <= x8 <= 1
 0 <= x9 <= 1
 0 <= x10 <= 1
 0 <= x11 <= 1
 0 <= x12 <= 1
 0 <= x13 <= 1
 0 <= x14 <= 1
 0 <= x15 <= 1
 0 <= x16 <= 1
 0 <= x17 <= 1
 0 <= x18 <= 1
 0 <= x19 <= 1
 0 <= x20 <= 1
 0 <= x21 <= 1
 0 <= x22 <= 1
 0 <= x23 <= 1
 0 <= x24 <= 1
 0 <= x25 <= 1
 0 <= x26 <= 1
 0 <= x27 <= 1
 0 <= x28 <= 1
 0 <= x29 <= 1
 0 <= x30 <= 1
 0 <= x31 <= 1
 0 <= x32 <= 1
 0 <= x33 <= 1
 0 <= x34 <= 1
 0 <= x35 <= 1
 0 <= x36 <= 1
 0 <= x37 <= 1
 0 <= x38 <= 1
 0 <= x39 <= 1
 0 <= x40 <= 1
 0 <= x41 <= 1
 0 <= x42 <= 1
 0 <= x43 <= 1
 0 <= x44 <= 1
 0 <= x45 <= 1
 0 <= x46 <= 1
 0 <= x47 <= 1
 0 <= x48 <= 1
 0 <= x49 <= 1
 0 <= x50 <= 1
 0 <= x51 <= 1
 0 <= x52 <= 1
 0 <= x53 <= 1
 0 <= x54 <= 1
 0 <= x55 <= 1
 0 <= x56 <= 1
 0 <= x57 <= 1
 0 <= x58 <= 1
 0 <= x59 <= 1
 0 <= x60 <= 1
 0 <= x61 <= 1
 0 <= x62 <= 1
 0 <= x63 <= 1
 0 <= x64 <= 1
 0 <= x65 <= 1
 0 <= x66 <= 1
 0 <= x67 <= 1
 0 <= x68 <= 1
 0 <= x69 <= 1
 0 <= x70 <= 1
 0 <= x71 <= 1
 0 <= x72 <= 1
 0 <= x73 <= 1
 0 <= x74 <= 1
 0 <= x75 <= 1
 0 <= x76 <= 1
 0 <= x77 <= 1
 0 <= x78 <= 1
 0 <= x79 <= 1
 0 <= x80 <= 1
 0 <= x81 <= 1
 0 <= x82 <= 1
 0 <= x83 <= 1
 0 <= x84 <= 1
 0 <= x85 <= 1
 0 <= x86 <= 1
 0 <= x87 <= 1
 0 <= x88 <= 1
 0 <= x89 <= 1
 0 <= x90 <= 1
 0 <= x91 <= 1
 0 <= x92 <= 1
 0 <= x93 <= 1
 0 <= x94 <= 1
 0 <= x95 <= 1
 0 <= x96 <= 1
 0 <= x97 <= 1
 0 <= x98 <= 1
 0 <= x99 <= 1
 0 <= x100 <= 1
 0 <= x101 <= 1
 0 <= x102 <= 1
 0 <= x103 <= 1
 0 <= x104 <= 1
 0 <= x105 <= 1
 0 <= x106 <= 1
 0 <= x107 <= 1
 0 <= x108 <= 1
 0 <= x109 <= 1
 0 <= x110 <= 1
 0 <= x111 <= 1
 0 <= x112 <= 1
 0 <= x113 <= 1
 0 <= x114 <= 1
 0 <= x115 <= 1
 0 <= x116 <= 1
 0 <= x117 <= 1
 0 <= x118 <= 1
 0 <= x119 <= 1
 0 <= x120 <= 1
 0 <= x121 <= 1
 0 <= x122 <= 1
 0 <= x123 <= 1
 0 <= x124 <= 1
 0 <= x125 <= 1
 0 <= x126 <= 1
 0 <= x127 <= 1
 0 <= x128 <= 1
 0 <= x129 <= 1
 0 <= x130 <= 1
 0 <= x131 <= 1
 0 <= x132 <= 1
 0 <= x133 <= 1
 0 <= x134 <= 1
 0 <= x135 <= 1
 0 <= x136 <= 1
 0 <= x137 <= 1
 0 <= x138 <= 1
 0 <= x139 <= 1
 0 <= x140 <= 1
 0 <= x141 <= 1
 0 <= x142 <= 1
 0 <= x143 <= 1
 0 <= x144 <= 1
 0 <= x145 <= 1
 0 <= x146 <= 1
 0 <= x147 <= 1
 0 <= x148 <= 1
 0 <= x149 <= 1
 0 <= x150 <= 1
Binaries
 x1  x2  x3  x4  x5  x6  x7  x8  x9  x10  x11  x12  x13  x14  x15  x16  x17 
 x18  x19  x20  x21  x22  x23  x24  x25  x26  x27  x28  x29  x30  x31  x32 
 x33  x34  x35  x36  x37  x38  x39  x40  x41  x42  x43  x44  x45  x46  x47 
 x48  x49  x50  x51  x52  x53  x54  x55  x56  x57  x58  x59  x60  x61  x62 
 x63  x64  x65  x66  x67  x68  x69  x70  x71  x72  x73  x74  x75  x76  x77 
 x78  x79  x80  x81  x82  x83  x84  x85  x86  x87  x88  x89  x90  x91  x92 
 x93  x94  x95  x96  x97  x98  x99  x100  x101  x102  x103  x104  x105  x106 
 x107  x108  x109  x110  x111  x112  x113  x114  x115  x116  x117  x118  x119 
 x120  x121  x122  x123  x124  x125  x126  x127  x128  x129  x130  x131  x132 
 x133  x134  x135  x136  x137  x138  x139  x140  x141  x142  x143  x144  x145 
 x146  x147  x148  x149  x150 
End
